decision_x1=[0,2];
decision_x2=[0,2];
decision_x3=[0,2];
decision_x4=[0,2];
decision_x5=[0,2];
decision_x6=[0,2];
decision_x7=[0,2];
decision_x8=[0,2];
decision_x9=[0,2];
decision_x10=[0,2];
decision_x11=[0,2];
decision_x12=[0,2];
decision_x13=[0,2];
decision_x14=[0,2];
decision_x15=[0,2];
random_y1=[0,2];
random_y2=[0,2];
random_y3=[0,2];
constraint_x3_x1=[
0,1,5.4|
0,2,1.4|
1,0,7|
1,2,5.3|
2,0,2.9|
2,1,8.8|
];
constraint_x4_x2=[
0,1,7.2|
0,2,2.5|
1,0,7|
1,2,9.2|
2,0,10|
2,1,9.2|
];
constraint_x5_x4=[
0,1,8.5|
0,2,7.6|
1,0,9.4|
1,2,7|
2,0,1.9|
2,1,9.5|
];
constraint_x7_x4=[
0,1,5.9|
0,2,2.6|
1,0,9.4|
1,2,7.8|
2,0,1.3|
2,1,7.2|
];
constraint_x7_x6=[
0,1,3.7|
0,2,3.8|
1,0,4.7|
1,2,0.38|
2,0,5.5|
2,1,3.8|
];
constraint_x8_x2=[
0,1,3.4|
0,2,0.57|
1,0,3|
1,2,2.9|
2,0,2.2|
2,1,0.76|
];
constraint_x8_x5=[
0,1,9.4|
0,2,9.9|
1,0,7.7|
1,2,1|
2,0,6.2|
2,1,3.8|
];
constraint_x8_x7=[
0,1,1.3|
0,2,0.89|
1,0,1.5|
1,2,2.9|
2,0,9.4|
2,1,9.9|
];
constraint_x9_x4=[
0,1,3|
0,2,1.3|
1,0,6.7|
1,2,1.6|
2,0,7.8|
2,1,1.7|
];
constraint_x9_x5=[
0,1,7.4|
0,2,6.2|
1,0,8.4|
1,2,8.1|
2,0,2.9|
2,1,3.9|
];
constraint_x9_x6=[
0,1,3.6|
0,2,8.1|
1,0,9.4|
1,2,1.1|
2,0,0.48|
2,1,6.3|
];
constraint_x9_x8=[
0,1,0.13|
0,2,0.83|
1,0,3.5|
1,2,7.8|
2,0,9.9|
2,1,6.9|
];
constraint_x10_x1=[
0,1,2.5|
0,2,6.6|
1,0,0.29|
1,2,3.3|
2,0,4.8|
2,1,7.1|
];
constraint_x10_x2=[
0,1,8.2|
0,2,3.8|
1,0,4.2|
1,2,9.6|
2,0,9.5|
2,1,3.1|
];
constraint_x10_x3=[
0,1,9.8|
0,2,0.52|
1,0,4.2|
1,2,4.6|
2,0,9.8|
2,1,1.9|
];
constraint_x10_x5=[
0,1,8.5|
0,2,3.6|
1,0,0.73|
1,2,0.4|
2,0,4.4|
2,1,0.77|
];
constraint_x10_x6=[
0,1,8|
0,2,5.7|
1,0,4.7|
1,2,5|
2,0,2.5|
2,1,3.3|
];
constraint_x10_x8=[
0,1,4.7|
0,2,2.3|
1,0,8.3|
1,2,4.8|
2,0,8.2|
2,1,8.4|
];
constraint_x11_x3=[
0,1,3.8|
0,2,3.7|
1,0,9|
1,2,3.9|
2,0,2|
2,1,3.2|
];
constraint_x11_x9=[
0,1,9.8|
0,2,7.5|
1,0,5.3|
1,2,3.4|
2,0,3|
2,1,1.4|
];
constraint_x11_x10=[
0,1,5|
0,2,2.3|
1,0,4.5|
1,2,1.7|
2,0,9.4|
2,1,7.3|
];
constraint_x12_x1=[
0,1,0.63|
0,2,3.1|
1,0,9.1|
1,2,9.1|
2,0,9.6|
2,1,8.5|
];
constraint_x12_x2=[
0,1,8.7|
0,2,6.1|
1,0,6|
1,2,2.3|
2,0,7.3|
2,1,5.6|
];
constraint_x12_x4=[
0,1,1.8|
0,2,0.5|
1,0,3.6|
1,2,1.2|
2,0,8.2|
2,1,2.6|
];
constraint_x12_x7=[
0,1,2.3|
0,2,1.5|
1,0,1|
1,2,7.8|
2,0,7.2|
2,1,9.5|
];
constraint_x12_x9=[
0,1,8.5|
0,2,5.9|
1,0,2.1|
1,2,0.13|
2,0,5.7|
2,1,8.6|
];
constraint_x13_x1=[
0,1,7|
0,2,6.6|
1,0,2.4|
1,2,6.3|
2,0,2.8|
2,1,8.8|
];
constraint_x13_x2=[
0,1,8.2|
0,2,5.1|
1,0,7.5|
1,2,8.8|
2,0,1.2|
2,1,7.5|
];
constraint_x13_x3=[
0,1,4.6|
0,2,8.4|
1,0,2.9|
1,2,8.6|
2,0,3.5|
2,1,0.38|
];
constraint_x13_x4=[
0,1,7.6|
0,2,8.4|
1,0,2.6|
1,2,6.1|
2,0,7.6|
2,1,5.9|
];
constraint_x13_x5=[
0,1,3.5|
0,2,8.2|
1,0,8.9|
1,2,0.71|
2,0,3.5|
2,1,9.3|
];
constraint_x13_x7=[
0,1,0.16|
0,2,3.3|
1,0,9.1|
1,2,3.3|
2,0,5.6|
2,1,9.4|
];
constraint_x13_x8=[
0,1,8.3|
0,2,2.3|
1,0,2.2|
1,2,8.9|
2,0,8.3|
2,1,0.66|
];
constraint_x13_x9=[
0,1,10|
0,2,2.9|
1,0,6.2|
1,2,4.9|
2,0,1.4|
2,1,9.9|
];
constraint_x13_x10=[
0,1,3.6|
0,2,1.8|
1,0,7.6|
1,2,0.52|
2,0,6|
2,1,1.9|
];
constraint_x13_x11=[
0,1,4.1|
0,2,0.91|
1,0,9.4|
1,2,6|
2,0,2.1|
2,1,8.4|
];
constraint_x14_x4=[
0,1,2.3|
0,2,8.8|
1,0,9.5|
1,2,7.2|
2,0,7.9|
2,1,1.9|
];
constraint_x14_x5=[
0,1,8.2|
0,2,3.5|
1,0,8.2|
1,2,7.4|
2,0,7.7|
2,1,1.5|
];
constraint_x14_x6=[
0,1,6.2|
0,2,0.4|
1,0,3.9|
1,2,7.2|
2,0,5.5|
2,1,5.7|
];
constraint_x14_x7=[
0,1,7.2|
0,2,7.5|
1,0,6.8|
1,2,1.3|
2,0,6.6|
2,1,8.2|
];
constraint_x14_x9=[
0,1,7.8|
0,2,2.9|
1,0,9.2|
1,2,0.95|
2,0,9.2|
2,1,6.8|
];
constraint_x14_x11=[
0,1,6.4|
0,2,8|
1,0,4.3|
1,2,2.4|
2,0,2.3|
2,1,1.1|
];
constraint_x15_x1=[
0,1,3.6|
0,2,4.1|
1,0,6.5|
1,2,8.3|
2,0,3|
2,1,6.2|
];
constraint_x15_x2=[
0,1,0.44|
0,2,9.5|
1,0,4.3|
1,2,1.9|
2,0,2.2|
2,1,5.5|
];
constraint_x15_x3=[
0,1,8|
0,2,2.9|
1,0,8.8|
1,2,3.7|
2,0,2.1|
2,1,7.5|
];
constraint_x15_x5=[
0,1,7.8|
0,2,5.8|
1,0,5.8|
1,2,10|
2,0,7.8|
2,1,9.9|
];
constraint_x15_x6=[
0,1,4.1|
0,2,2.1|
1,0,9.1|
1,2,8.5|
2,0,4.5|
2,1,2.7|
];
constraint_x15_x8=[
0,1,1.2|
0,2,8.5|
1,0,0.96|
1,2,2.8|
2,0,9.2|
2,1,7.3|
];
constraint_x15_x9=[
0,1,8.1|
0,2,7.8|
1,0,7.1|
1,2,6.3|
2,0,1.5|
2,1,1.5|
];
constraint_x15_x10=[
0,1,0.95|
0,2,1.9|
1,0,3.1|
1,2,0.19|
2,0,0.89|
2,1,7.9|
];
constraint_x15_x12=[
0,1,4.9|
0,2,8.7|
1,0,4|
1,2,1.1|
2,0,3.1|
2,1,3.3|
];
constraint_x15_x13=[
0,1,4.9|
0,2,7.8|
1,0,9.9|
1,2,8.8|
2,0,3.1|
2,1,7.2|
];
constraint_x15_x14=[
0,1,9.1|
0,2,0.38|
1,0,2.7|
1,2,9.1|
2,0,6.4|
2,1,0.89|
];
constraint_x1_y1=[
0,0,6.6|
0,1,9.2|
0,2,8.5|
1,0,1.5|
1,1,9.6|
1,2,4.8|
2,0,8.4|
2,1,5.6|
2,2,0.42|
];
constraint_x2_y2=[
0,0,3.6|
0,1,6.3|
0,2,8.7|
1,0,2.9|
1,1,4.3|
1,2,1.5|
2,0,6.3|
2,1,9|
2,2,5.1|
];
constraint_x3_y3=[
0,0,5.7|
0,1,7|
0,2,0.36|
1,0,7|
1,1,7.9|
1,2,3.7|
2,0,1.6|
2,1,1.6|
2,2,1.5|
];
initial_distribution_y1=[0.37,0.41,0.22];
initial_distribution_y2=[0.52,0.29,0.19];
initial_distribution_y3=[0.077,0.78,0.14];
transition_y1=[
0.057,0.47,0.47|
0.092,0.16,0.75|
0.31,0.63,0.055|
];
transition_y2=[
0.41,0.3,0.3|
0.26,0.5,0.24|
0.34,0.42,0.24|
];
transition_y3=[
0.091,0.51,0.4|
0.48,0.39,0.13|
0.71,0.26,0.025|
];
